1 1 -2 0
1 1 -3 0
1 1 -4 0
1 -1 -5 0
1 -2 -3 0
1 -2 1 0
1 -2 6 0
1 -2 -5 0
1 -7 -8 0
1 7 -9 0
1 7 -10 0
1 -7 -3 0
1 7 11 0
1 7 -5 0
1 -9 12 0
1 -9 -8 0
1 9 13 0
1 9 3 0
1 9 -14 0
1 9 -11 0
1 9 -7 0
1 9 -6 0
1 3 -15 0
1 -3 -2 0
1 -3 -16 0
1 3 -17 0
1 3 -18 0
1 -3 7 0
1 -3 -1 0
1 3 -5 0
1 -5 -19 0
1 5 20 0
1 5 9 0
1 -5 3 0
1 -5 18 0
1 -10 -21 0
1 10 -9 0
1 10 2 0
1 10 -17 0
1 10 -22 0
1 10 -23 0
1 -6 -10 0
1 -6 17 0
1 -6 -23 0
1 24 12 0
1 -24 14 0
1 24 11 0
1 -24 23 0
1 24 -5 0
1 15 8 0
1 -15 25 0
1 -15 -3 0
1 -15 11 0
1 -15 -24 0
1 -15 5 0
1 18 12 0
1 -18 8 0
1 -18 20 0
1 18 -26 0
1 -18 27 0
1 18 3 0
1 -18 -14 0
1 18 -28 0
1 -18 -22 0
1 -18 29 0
1 -20 -26 0
1 20 -21 0
1 -20 -14 0
1 -20 11 0
1 20 29 0
1 20 5 0
1 11 30 0
1 -11 -31 0
1 11 32 0
1 -11 -33 0
1 -11 -34 0
1 11 -18 0
1 11 -24 0
1 11 7 0
1 11 -35 0
1 -8 30 0
1 8 -15 0
1 8 -9 0
1 -8 33 0
1 -8 -34 0
1 8 -11 0
1 8 -18 0
1 -8 7 0
1 8 -35 0
1 -14 -36 0
1 -14 19 0
1 -14 37 0
1 14 38 0
1 14 17 0
1 14 -18 0
1 14 24 0
1 14 -35 0
1 12 36 0
1 12 39 0
1 -12 -19 0
1 12 -15 0
1 12 -14 0
1 -12 37 0
1 12 -18 0
1 -12 -24 0
1 -12 -7 0
1 -34 -26 0
1 34 -29 0
1 31 26 0
1 31 34 0
1 -31 28 0
1 -33 -30 0
1 -33 26 0
1 -33 37 0
1 -33 29 0
1 -30 36 0
1 -30 -8 0
1 30 -26 0
1 30 -29 0
1 29 30 0
1 -29 -20 0
1 29 -40 0
1 29 -33 0
1 -29 -18 0
1 -27 31 0
1 27 -20 0
1 -27 40 0
1 27 -34 0
1 -27 18 0
1 27 29 0
1 27 -41 0
1 -28 30 0
1 -28 -31 0
1 -28 20 0
1 -28 -26 0
1 28 40 0
1 28 42 0
1 -28 34 0
1 28 18 0
1 28 41 0
1 -28 35 0
1 -26 -31 0
1 -26 32 0
1 -26 33 0
1 -26 34 0
1 -26 -43 0
1 4 -44 0
1 -4 1 0
1 -44 -45 0
1 44 -46 0
1 -44 -47 0
1 -48 45 0
1 -48 49 0
1 48 47 0
1 48 -50 0
1 48 7 0
1 13 45 0
1 13 51 0
1 -13 -52 0
1 13 46 0
1 -13 47 0
1 -13 -50 0
1 13 -48 0
1 51 -53 0
1 51 -25 0
1 51 -13 0
1 -51 44 0
1 51 22 0
1 51 -4 0
1 -47 -51 0
1 -47 -25 0
1 -47 -13 0
1 47 -44 0
1 -47 -54 0
1 47 -22 0
1 47 23 0
1 -47 -48 0
1 47 4 0
1 -45 -55 0
1 45 44 0
1 45 -46 0
1 -45 48 0
1 45 -4 0
1 -46 -13 0
1 -46 44 0
1 -46 56 0
1 -46 -4 0
1 -23 51 0
1 23 52 0
1 -23 -25 0
1 -23 -49 0
1 -23 -10 0
1 23 -47 0
1 -23 -50 0
1 -23 6 0
1 25 -51 0
1 -25 -52 0
1 25 10 0
1 25 -57 0
1 -22 51 0
1 -22 21 0
1 -22 58 0
1 -22 -10 0
1 22 -47 0
1 -22 50 0
1 -21 57 0
1 21 -51 0
1 21 -20 0
1 -21 52 0
1 21 49 0
1 -21 -59 0
1 -21 -58 0
1 -21 50 0
1 -21 22 0
1 -21 -60 0
1 -49 57 0
1 -49 36 0
1 -49 -21 0
1 -49 25 0
1 -49 61 0
1 -49 13 0
1 -49 -62 0
1 -49 17 0
1 49 22 0
1 -49 23 0
1 -57 -63 0
1 -57 -36 0
1 -57 19 0
1 -57 21 0
1 57 25 0
1 -57 13 0
1 -57 -17 0
1 57 -22 0
1 -57 64 0
1 52 -21 0
1 -52 65 0
1 -52 62 0
1 52 -23 0
1 52 -48 0
1 50 -63 0
1 50 -21 0
1 -50 -52 0
1 50 -13 0
1 -50 62 0
1 50 22 0
1 50 66 0
1 -50 23 0
1 50 -48 0
1 17 12 0
1 17 -59 0
1 17 58 0
1 -17 10 0
1 17 14 0
1 17 -34 0
1 -17 57 0
1 -19 31 0
1 19 59 0
1 -19 3 0
1 -19 14 0
1 19 -57 0
1 19 -6 0
1 37 12 0
1 37 36 0
1 -37 -49 0
1 37 -67 0
1 37 -14 0
1 -37 -33 0
1 37 68 0
1 -37 -60 0
1 -37 -69 0
1 -36 -70 0
1 -36 12 0
1 -36 59 0
1 -36 -67 0
1 -36 -16 0
1 36 14 0
1 -36 68 0
1 36 -69 0
1 58 19 0
1 -58 71 0
1 58 37 0
1 -58 -17 0
1 -58 -22 0
1 -58 -72 0
1 -58 43 0
1 58 -35 0
1 -60 36 0
1 -60 19 0
1 60 58 0
1 60 -71 0
1 -60 42 0
1 60 -32 0
1 -60 -37 0
1 60 17 0
1 -60 -22 0
1 -60 72 0
1 -60 35 0
1 -59 -63 0
1 -59 36 0
1 -59 19 0
1 59 21 0
1 59 -73 0
1 59 -71 0
1 -59 62 0
1 59 17 0
1 -59 -22 0
1 59 68 0
1 59 -72 0
1 59 -74 0
1 68 -36 0
1 68 -19 0
1 68 21 0
1 68 59 0
1 68 -75 0
1 68 62 0
1 68 -37 0
1 68 22 0
1 32 12 0
1 32 -8 0
1 -32 -26 0
1 32 -58 0
1 -32 -14 0
1 32 -16 0
1 32 -11 0
1 -32 -69 0
1 35 -12 0
1 35 8 0
1 -35 58 0
1 35 -14 0
1 35 60 0
1 -42 -76 0
1 -42 58 0
1 42 67 0
1 -42 -16 0
1 -42 -60 0
1 42 43 0
1 43 70 0
1 -43 -39 0
1 43 -76 0
1 -43 -26 0
1 -43 58 0
1 -43 -67 0
1 -43 38 0
1 43 77 0
1 43 -28 0
1 43 -69 0
1 -43 -60 0
1 43 74 0
1 16 -70 0
1 16 -36 0
1 -16 78 0
1 16 79 0
1 16 -32 0
1 16 -80 0
1 16 81 0
1 -16 -41 0
1 16 43 0
1 70 78 0
1 -70 -40 0
1 -70 16 0
1 -70 -5 0
1 -70 -41 0
1 -70 43 0
1 67 36 0
1 -67 -78 0
1 67 -82 0
1 67 -71 0
1 -67 -42 0
1 67 -10 0
1 -67 -32 0
1 -67 -37 0
1 67 -83 0
1 67 -72 0
1 -67 43 0
1 -67 69 0
1 69 36 0
1 69 -78 0
1 -69 82 0
1 -69 -32 0
1 69 37 0
1 -69 83 0
1 69 -43 0
1 69 -35 0
1 -40 -26 0
1 40 27 0
1 -40 -71 0
1 40 16 0
1 40 -38 0
1 -40 77 0
1 40 -29 0
1 40 -41 0
1 41 -70 0
1 41 -39 0
1 41 26 0
1 -41 -40 0
1 -41 16 0
1 -41 -38 0
1 41 -29 0
1 41 -72 0
1 -79 39 0
1 -79 84 0
1 -79 -81 0
1 -79 85 0
1 -79 82 0
1 79 -16 0
1 -79 -38 0
1 -79 -77 0
1 79 86 0
1 81 -39 0
1 -81 -76 0
1 81 -84 0
1 81 -85 0
1 -81 -16 0
1 81 -77 0
1 81 87 0
1 81 83 0
1 77 88 0
1 -77 89 0
1 -77 40 0
1 77 42 0
1 -77 81 0
1 -76 -88 0
1 76 89 0
1 -76 -40 0
1 -76 42 0
1 -76 -90 0
1 76 77 0
1 76 91 0
1 76 -41 0
1 76 43 0
1 38 -39 0
1 -38 -92 0
1 38 78 0
1 -38 -79 0
1 -38 14 0
1 38 41 0
1 39 -12 0
1 39 92 0
1 39 79 0
1 -39 -40 0
1 -39 42 0
1 39 38 0
1 -39 -80 0
1 -39 -81 0
1 39 41 0
1 -39 43 0
1 89 76 0
1 -89 84 0
1 89 85 0
1 -89 -86 0
1 -89 87 0
1 -91 84 0
1 91 89 0
1 -91 -86 0
1 -91 80 0
1 88 -84 0
1 -88 92 0
1 88 90 0
1 88 -86 0
1 -90 84 0
1 90 85 0
1 -90 86 0
1 87 89 0
1 87 79 0
1 -87 -90 0
1 87 91 0
1 -87 -29 0
1 85 -88 0
1 85 27 0
1 -85 79 0
1 -85 -90 0
1 -85 91 0
1 85 -81 0
1 -85 -87 0
1 86 88 0
1 86 -84 0
1 -86 89 0
1 86 -91 0
1 86 -81 0
1 -84 26 0
1 -84 89 0
1 -84 -79 0
1 84 90 0
1 -84 -91 0
1 -84 81 0
1 62 63 0
1 62 -52 0
1 -62 -59 0
1 -62 -32 0
1 -62 54 0
1 -63 -55 0
1 63 49 0
1 63 59 0
1 63 50 0
1 63 -57 0
1 -63 -68 0
1 -63 35 0
1 75 55 0
1 -75 -42 0
1 -75 -56 0
1 75 -54 0
1 75 -64 0
1 -75 -68 0
1 -75 74 0
1 74 -53 0
1 74 -65 0
1 74 59 0
1 -74 56 0
1 74 68 0
1 74 43 0
1 53 -63 0
1 -53 -51 0
1 53 82 0
1 -53 -71 0
1 -53 -62 0
1 53 83 0
1 53 -74 0
1 -54 -63 0
1 54 53 0
1 54 -82 0
1 -54 71 0
1 -54 62 0
1 54 -47 0
1 54 74 0
1 -55 -45 0
1 -55 75 0
1 55 -62 0
1 55 74 0
1 -56 63 0
1 -56 55 0
1 56 75 0
1 -56 -46 0
1 -56 -74 0
1 71 -53 0
1 -71 -65 0
1 -71 -40 0
1 71 -58 0
1 -71 54 0
1 71 64 0
1 -71 -68 0
1 71 -60 0
1 -71 -72 0
1 -71 -69 0
1 72 61 0
1 72 59 0
1 72 -58 0
1 72 -71 0
1 72 64 0
1 -72 68 0
1 82 -53 0
1 82 -93 0
1 -82 61 0
1 -82 94 0
1 -82 -67 0
1 -82 54 0
1 -82 -66 0
1 82 64 0
1 82 -69 0
1 -83 -53 0
1 83 -65 0
1 -83 61 0
1 83 -94 0
1 -83 54 0
1 83 -66 0
1 -83 -64 0
1 -83 -81 0
1 -61 64 0
1 61 49 0
1 -61 -95 0
1 -61 -80 0
1 61 -83 0
1 61 72 0
1 64 92 0
1 64 -61 0
1 64 71 0
1 -64 75 0
1 64 -83 0
1 64 74 0
1 65 -52 0
1 65 82 0
1 65 75 0
1 -65 66 0
1 -65 -83 0
1 -65 72 0
1 65 -74 0
1 66 65 0
1 66 -82 0
1 -66 75 0
1 66 83 0
1 66 74 0
1 -78 70 0
1 -78 64 0
1 -78 -61 0
1 -78 -94 0
1 78 67 0
1 78 -16 0
1 -78 -38 0
1 -78 -80 0
1 78 93 0
1 -78 96 0
1 78 -69 0
1 80 70 0
1 80 -39 0
1 -80 -78 0
1 -80 73 0
1 -80 94 0
1 -80 67 0
1 -80 16 0
1 -80 -38 0
1 80 64 0
1 80 93 0
1 -92 -39 0
1 -92 -88 0
1 -92 73 0
1 92 94 0
1 -92 38 0
1 -92 -64 0
1 -92 93 0
1 92 96 0
1 95 39 0
1 95 61 0
1 95 73 0
1 95 90 0
1 95 -64 0
1 -95 -93 0
1 -95 -96 0
1 94 78 0
1 94 58 0
1 -94 95 0
1 -94 -80 0
1 96 92 0
1 -96 78 0
1 96 82 0
1 96 94 0
1 -96 -80 0
1 -73 93 0
1 -73 -78 0
1 73 -59 0
1 73 95 0
1 93 92 0
1 -93 78 0
1 93 73 0
1 -93 83 0
